c 199_3_checker_6cl.cnf
c
c field = 199
c formula set type = 3_checker_6cl
c
p cnf 6 14
392 
394 
398 
-401 
-390 
-402 
393 
395 
399 
-400 
-391 
-403 
394 
398 
400 
-393 
-390 
-402 
395 
399 
401 
-392 
-391 
-403 
394 
398 
400 
-403 
-392 
-404 
395 
399 
401 
-402 
-393 
-405 
398 
400 
402 
-395 
-392 
-404 
399 
401 
403 
-394 
-393 
-405 
398 
400 
402 
-405 
-394 
-406 
399 
401 
403 
-404 
-395 
-407 
306 
336 
366 
-277 
-246 
-426 
307 
337 
367 
-276 
-247 
-427 
312 
340 
368 
-285 
-256 
-424 
313 
341 
369 
-284 
-257 
-425 
